p cnf 289 1
289 0
w 1 0.0437633
w 2 1 1
w 2 -1 0
w 3 2 0.920058
w 3 -2 0.345052
w 4 3 0.923196
w 4 -3 0.330186
w 5 4 0.387822
w 5 -4 0.210462
w 6 5 0
w 6 -5 1
w 7 6 1
w 7 -6 0
w 8 7 0.151682
w 8 -7 0.906507
w 9 8 0.497069
w 9 -8 0.234054
w 10 9 0
w 10 -9 1
w 11 10 0.052166
w 11 -10 0.0501294
w 12 11 0.957039
w 12 -11 0.589306
w 13 12 1
w 13 -12 0
w 14 13 0.456881
w 14 -13 0.725885
w 15 14 0.801933
w 15 -14 0.355262
w 16 15 0
w 16 -15 1
w 17 16 1
w 17 -16 0
w 18 1 0
w 18 -1 1
w 19 18 2 0
w 19 18 -2 1
w 19 -18 2 0
w 19 -18 -2 0
w 20 19 3 0.0462167
w 20 19 -3 0.172639
w 20 -19 3 0.0358579
w 20 -19 -3 0.475199
w 21 20 4 0.692072
w 21 20 -4 0.527365
w 21 -20 4 0.578199
w 21 -20 -4 0.674491
w 22 21 5 0
w 22 21 -5 0
w 22 -21 5 1
w 22 -21 -5 1
w 23 22 6 0
w 23 22 -6 1
w 23 -22 6 1
w 23 -22 -6 0
w 24 23 7 0.348576
w 24 23 -7 0.906543
w 24 -23 7 0.725103
w 24 -23 -7 0.691157
w 25 24 8 0.0434747
w 25 24 -8 0.215045
w 25 -24 8 0.532048
w 25 -24 -8 0.333893
w 26 25 9 0.333852
w 26 25 -9 0.38011
w 26 -25 9 0.0632542
w 26 -25 -9 0.36971
w 27 26 10 0.591324
w 27 26 -10 0.0617818
w 27 -26 10 0.382675
w 27 -26 -10 0.169523
w 28 27 11 0.86708
w 28 27 -11 0.337029
w 28 -27 11 0.693915
w 28 -27 -11 0.352287
w 29 28 12 0
w 29 28 -12 0
w 29 -28 12 0
w 29 -28 -12 1
w 30 29 13 0
w 30 29 -13 0
w 30 -29 13 1
w 30 -29 -13 0
w 31 30 14 0.136306
w 31 30 -14 0.579674
w 31 -30 14 0.205075
w 31 -30 -14 0.470199
w 32 31 15 0
w 32 31 -15 0
w 32 -31 15 0
w 32 -31 -15 1
w 33 32 16 1
w 33 32 -16 0
w 33 -32 16 0
w 33 -32 -16 1
w 34 33 17 0.631419
w 34 33 -17 0.400607
w 34 -33 17 0.30766
w 34 -33 -17 0.776756
w 35 18 0.871039
w 35 -18 0.29126
w 36 35 19 0.000770589
w 36 35 -19 0.658988
w 36 -35 19 0.507413
w 36 -35 -19 0.0370454
w 37 36 20 0.872041
w 37 36 -20 0.710072
w 37 -36 20 0.888125
w 37 -36 -20 0.451715
w 38 37 21 0.358324
w 38 37 -21 0.922005
w 38 -37 21 0.454074
w 38 -37 -21 0.208633
w 39 38 22 1
w 39 38 -22 0
w 39 -38 22 0
w 39 -38 -22 0
w 40 39 23 0
w 40 39 -23 1
w 40 -39 23 0
w 40 -39 -23 0
w 41 40 24 0
w 41 40 -24 0
w 41 -40 24 1
w 41 -40 -24 0
w 42 41 25 0.783414
w 42 41 -25 0.137389
w 42 -41 25 0.233229
w 42 -41 -25 0.290827
w 43 42 26 0
w 43 42 -26 1
w 43 -42 26 0
w 43 -42 -26 1
w 44 43 27 0.799654
w 44 43 -27 0.231497
w 44 -43 27 0.536588
w 44 -43 -27 0.253727
w 45 44 28 1
w 45 44 -28 1
w 45 -44 28 0
w 45 -44 -28 0
w 46 45 29 0.356929
w 46 45 -29 0.447358
w 46 -45 29 0.989387
w 46 -45 -29 0.314849
w 47 46 30 0.429814
w 47 46 -30 0.580429
w 47 -46 30 0.236564
w 47 -46 -30 0.379287
w 48 47 31 0.810804
w 48 47 -31 0.162701
w 48 -47 31 0.854438
w 48 -47 -31 0.0440329
w 49 48 32 1
w 49 48 -32 0
w 49 -48 32 0
w 49 -48 -32 0
w 50 49 33 0.23098
w 50 49 -33 0.713033
w 50 -49 33 0.13375
w 50 -49 -33 0.767569
w 51 50 34 0.57388
w 51 50 -34 0.759705
w 51 -50 34 0.583198
w 51 -50 -34 0.928262
w 52 35 1
w 52 -35 0
w 53 52 36 1
w 53 52 -36 1
w 53 -52 36 1
w 53 -52 -36 0
w 54 53 37 0
w 54 53 -37 0
w 54 -53 37 0
w 54 -53 -37 1
w 55 54 38 1
w 55 54 -38 0
w 55 -54 38 1
w 55 -54 -38 0
w 56 55 39 0.563879
w 56 55 -39 0.694207
w 56 -55 39 0.755931
w 56 -55 -39 0.79486
w 57 56 40 0
w 57 56 -40 1
w 57 -56 40 0
w 57 -56 -40 1
w 58 57 41 0
w 58 57 -41 0
w 58 -57 41 0
w 58 -57 -41 1
w 59 58 42 0.434003
w 59 58 -42 0.0121128
w 59 -58 42 0.277055
w 59 -58 -42 0.167199
w 60 59 43 0.457524
w 60 59 -43 0.136959
w 60 -59 43 0.295331
w 60 -59 -43 0.355042
w 61 60 44 0.789285
w 61 60 -44 0.106998
w 61 -60 44 0.742121
w 61 -60 -44 0.736767
w 62 61 45 0.595799
w 62 61 -45 0.300647
w 62 -61 45 0.582032
w 62 -61 -45 0.35173
w 63 62 46 0
w 63 62 -46 1
w 63 -62 46 1
w 63 -62 -46 0
w 64 63 47 0.980068
w 64 63 -47 0.320468
w 64 -63 47 0.096794
w 64 -63 -47 0.634457
w 65 64 48 0.773808
w 65 64 -48 0.0684597
w 65 -64 48 0.822543
w 65 -64 -48 0.0508628
w 66 65 49 0
w 66 65 -49 0
w 66 -65 49 0
w 66 -65 -49 1
w 67 66 50 1
w 67 66 -50 0
w 67 -66 50 1
w 67 -66 -50 0
w 68 67 51 0.628063
w 68 67 -51 0.90865
w 68 -67 51 0.440285
w 68 -67 -51 0.979793
w 69 52 1
w 69 -52 0
w 70 69 53 1
w 70 69 -53 1
w 70 -69 53 1
w 70 -69 -53 0
w 71 70 54 1
w 71 70 -54 0
w 71 -70 54 1
w 71 -70 -54 0
w 72 71 55 0
w 72 71 -55 1
w 72 -71 55 0
w 72 -71 -55 0
w 73 72 56 0
w 73 72 -56 0
w 73 -72 56 0
w 73 -72 -56 1
w 74 73 57 1
w 74 73 -57 0
w 74 -73 57 0
w 74 -73 -57 1
w 75 74 58 0.00273161
w 75 74 -58 0.48842
w 75 -74 58 0.883614
w 75 -74 -58 0.00688831
w 76 75 59 0.104818
w 76 75 -59 0.66898
w 76 -75 59 0.710804
w 76 -75 -59 0.0309925
w 77 76 60 1
w 77 76 -60 1
w 77 -76 60 1
w 77 -76 -60 0
w 78 77 61 0.932831
w 78 77 -61 0.494095
w 78 -77 61 0.698378
w 78 -77 -61 0.513566
w 79 78 62 0
w 79 78 -62 0
w 79 -78 62 1
w 79 -78 -62 0
w 80 79 63 0.127903
w 80 79 -63 0.463744
w 80 -79 63 0.986173
w 80 -79 -63 0.221984
w 81 80 64 0.889995
w 81 80 -64 0.224716
w 81 -80 64 0.000299226
w 81 -80 -64 0.773609
w 82 81 65 1
w 82 81 -65 1
w 82 -81 65 0
w 82 -81 -65 0
w 83 82 66 0.211723
w 83 82 -66 0.45318
w 83 -82 66 0.96338
w 83 -82 -66 0.799479
w 84 83 67 1
w 84 83 -67 0
w 84 -83 67 0
w 84 -83 -67 1
w 85 84 68 1
w 85 84 -68 1
w 85 -84 68 0
w 85 -84 -68 1
w 86 69 0.42321
w 86 -69 0.491813
w 87 86 70 0
w 87 86 -70 0
w 87 -86 70 0
w 87 -86 -70 1
w 88 87 71 0.816685
w 88 87 -71 0.0729864
w 88 -87 71 0.170117
w 88 -87 -71 0.734961
w 89 88 72 0.0707013
w 89 88 -72 0.36404
w 89 -88 72 0.860831
w 89 -88 -72 0.282425
w 90 89 73 0.824211
w 90 89 -73 0.0819032
w 90 -89 73 0.0182255
w 90 -89 -73 0.63833
w 91 90 74 0.713326
w 91 90 -74 0.150826
w 91 -90 74 0.0600893
w 91 -90 -74 0.43541
w 92 91 75 0.772885
w 92 91 -75 0.79932
w 92 -91 75 0.55849
w 92 -91 -75 0.196095
w 93 92 76 0
w 93 92 -76 1
w 93 -92 76 0
w 93 -92 -76 1
w 94 93 77 0.943443
w 94 93 -77 0.496067
w 94 -93 77 0.977842
w 94 -93 -77 0.11356
w 95 94 78 1
w 95 94 -78 1
w 95 -94 78 0
w 95 -94 -78 1
w 96 95 79 0
w 96 95 -79 1
w 96 -95 79 0
w 96 -95 -79 0
w 97 96 80 1
w 97 96 -80 1
w 97 -96 80 0
w 97 -96 -80 1
w 98 97 81 0
w 98 97 -81 1
w 98 -97 81 1
w 98 -97 -81 0
w 99 98 82 0.542667
w 99 98 -82 0.997349
w 99 -98 82 0.674632
w 99 -98 -82 0.22205
w 100 99 83 0.618075
w 100 99 -83 0.718117
w 100 -99 83 0.880046
w 100 -99 -83 0.731635
w 101 100 84 0.809301
w 101 100 -84 0.915896
w 101 -100 84 0.544212
w 101 -100 -84 0.599387
w 102 101 85 0
w 102 101 -85 1
w 102 -101 85 1
w 102 -101 -85 0
w 103 86 0
w 103 -86 1
w 104 103 87 0.869765
w 104 103 -87 0.716865
w 104 -103 87 0.1101
w 104 -103 -87 0.990946
w 105 104 88 0.488669
w 105 104 -88 0.670617
w 105 -104 88 0.304513
w 105 -104 -88 0.158371
w 106 105 89 0
w 106 105 -89 0
w 106 -105 89 1
w 106 -105 -89 0
w 107 106 90 1
w 107 106 -90 1
w 107 -106 90 0
w 107 -106 -90 1
w 108 107 91 0.0986088
w 108 107 -91 0.646806
w 108 -107 91 0.4928
w 108 -107 -91 0.481191
w 109 108 92 0.706484
w 109 108 -92 0.412362
w 109 -108 92 0.990318
w 109 -108 -92 0.172795
w 110 109 93 0.52117
w 110 109 -93 0.0425599
w 110 -109 93 0.423201
w 110 -109 -93 0.63127
w 111 110 94 0
w 111 110 -94 0
w 111 -110 94 0
w 111 -110 -94 1
w 112 111 95 0
w 112 111 -95 0
w 112 -111 95 1
w 112 -111 -95 0
w 113 112 96 1
w 113 112 -96 1
w 113 -112 96 1
w 113 -112 -96 0
w 114 113 97 0
w 114 113 -97 1
w 114 -113 97 0
w 114 -113 -97 0
w 115 114 98 0.323091
w 115 114 -98 0.737266
w 115 -114 98 0.849215
w 115 -114 -98 0.495886
w 116 115 99 1
w 116 115 -99 0
w 116 -115 99 1
w 116 -115 -99 1
w 117 116 100 0.202646
w 117 116 -100 0.121594
w 117 -116 100 0.276074
w 117 -116 -100 0.843002
w 118 117 101 0
w 118 117 -101 1
w 118 -117 101 1
w 118 -117 -101 0
w 119 118 102 0.0736092
w 119 118 -102 0.0524101
w 119 -118 102 0.161895
w 119 -118 -102 0.818713
w 120 103 0.285702
w 120 -103 0.662426
w 121 120 104 0.902309
w 121 120 -104 0.987329
w 121 -120 104 0.775683
w 121 -120 -104 0.2254
w 122 121 105 0.624898
w 122 121 -105 0.721285
w 122 -121 105 0.168198
w 122 -121 -105 0.995283
w 123 122 106 0
w 123 122 -106 0
w 123 -122 106 1
w 123 -122 -106 0
w 124 123 107 0
w 124 123 -107 0
w 124 -123 107 1
w 124 -123 -107 0
w 125 124 108 0.0296533
w 125 124 -108 0.847455
w 125 -124 108 0.797368
w 125 -124 -108 0.103263
w 126 125 109 0.959263
w 126 125 -109 0.921976
w 126 -125 109 0.56106
w 126 -125 -109 0.244965
w 127 126 110 0.477846
w 127 126 -110 0.147274
w 127 -126 110 0.571731
w 127 -126 -110 0.253529
w 128 127 111 1
w 128 127 -111 1
w 128 -127 111 1
w 128 -127 -111 0
w 129 128 112 0.35369
w 129 128 -112 0.499525
w 129 -128 112 0.870647
w 129 -128 -112 0.185372
w 130 129 113 0.989178
w 130 129 -113 0.293127
w 130 -129 113 0.81782
w 130 -129 -113 0.507614
w 131 130 114 0.683687
w 131 130 -114 0.537267
w 131 -130 114 0.441818
w 131 -130 -114 0.481055
w 132 131 115 0.341683
w 132 131 -115 0.440318
w 132 -131 115 0.562505
w 132 -131 -115 0.902744
w 133 132 116 0.146907
w 133 132 -116 0.38059
w 133 -132 116 0.832557
w 133 -132 -116 0.718638
w 134 133 117 0.205231
w 134 133 -117 0.0149643
w 134 -133 117 0.512546
w 134 -133 -117 0.29919
w 135 134 118 1
w 135 134 -118 1
w 135 -134 118 0
w 135 -134 -118 1
w 136 135 119 0.716185
w 136 135 -119 0.246081
w 136 -135 119 0.131379
w 136 -135 -119 0.534005
w 137 120 0.725742
w 137 -120 0.217693
w 138 137 121 0
w 138 137 -121 1
w 138 -137 121 1
w 138 -137 -121 1
w 139 138 122 0
w 139 138 -122 0
w 139 -138 122 1
w 139 -138 -122 1
w 140 139 123 0.656905
w 140 139 -123 0.359542
w 140 -139 123 0.426695
w 140 -139 -123 0.862136
w 141 140 124 0
w 141 140 -124 1
w 141 -140 124 1
w 141 -140 -124 1
w 142 141 125 0.833007
w 142 141 -125 0.582398
w 142 -141 125 0.652458
w 142 -141 -125 0.549192
w 143 142 126 0.783837
w 143 142 -126 0.0831975
w 143 -142 126 0.582174
w 143 -142 -126 0.509578
w 144 143 127 0
w 144 143 -127 0
w 144 -143 127 1
w 144 -143 -127 1
w 145 144 128 1
w 145 144 -128 1
w 145 -144 128 1
w 145 -144 -128 0
w 146 145 129 0.390943
w 146 145 -129 0.619956
w 146 -145 129 0.29907
w 146 -145 -129 0.817638
w 147 146 130 0
w 147 146 -130 1
w 147 -146 130 1
w 147 -146 -130 1
w 148 147 131 1
w 148 147 -131 1
w 148 -147 131 1
w 148 -147 -131 0
w 149 148 132 0
w 149 148 -132 1
w 149 -148 132 1
w 149 -148 -132 0
w 150 149 133 1
w 150 149 -133 0
w 150 -149 133 0
w 150 -149 -133 1
w 151 150 134 1
w 151 150 -134 0
w 151 -150 134 1
w 151 -150 -134 0
w 152 151 135 0.256326
w 152 151 -135 0.0152035
w 152 -151 135 0.290413
w 152 -151 -135 0.0739638
w 153 152 136 1
w 153 152 -136 0
w 153 -152 136 0
w 153 -152 -136 1
w 154 137 0.598336
w 154 -137 0.852137
w 155 154 138 0.708417
w 155 154 -138 0.761907
w 155 -154 138 0.0712423
w 155 -154 -138 0.602335
w 156 155 139 0.146669
w 156 155 -139 0.00583106
w 156 -155 139 0.0487319
w 156 -155 -139 0.0952311
w 157 156 140 0
w 157 156 -140 0
w 157 -156 140 0
w 157 -156 -140 1
w 158 157 141 0.218862
w 158 157 -141 0.169672
w 158 -157 141 0.891579
w 158 -157 -141 0.475187
w 159 158 142 1
w 159 158 -142 0
w 159 -158 142 0
w 159 -158 -142 1
w 160 159 143 1
w 160 159 -143 0
w 160 -159 143 1
w 160 -159 -143 0
w 161 160 144 0
w 161 160 -144 1
w 161 -160 144 0
w 161 -160 -144 0
w 162 161 145 0.00646065
w 162 161 -145 0.0891119
w 162 -161 145 0.737802
w 162 -161 -145 0.0551925
w 163 162 146 1
w 163 162 -146 0
w 163 -162 146 1
w 163 -162 -146 1
w 164 163 147 0.396609
w 164 163 -147 0.341515
w 164 -163 147 0.824579
w 164 -163 -147 0.871796
w 165 164 148 0.00657113
w 165 164 -148 0.420947
w 165 -164 148 0.208562
w 165 -164 -148 0.152553
w 166 165 149 0.0314446
w 166 165 -149 0.790095
w 166 -165 149 0.0941521
w 166 -165 -149 0.452663
w 167 166 150 1
w 167 166 -150 1
w 167 -166 150 0
w 167 -166 -150 1
w 168 167 151 0.996908
w 168 167 -151 0.0520717
w 168 -167 151 0.593013
w 168 -167 -151 0.181251
w 169 168 152 0.990432
w 169 168 -152 0.214015
w 169 -168 152 0.0540853
w 169 -168 -152 0.162275
w 170 169 153 0
w 170 169 -153 1
w 170 -169 153 0
w 170 -169 -153 1
w 171 154 1
w 171 -154 0
w 172 171 155 0.238744
w 172 171 -155 0.130718
w 172 -171 155 0.544379
w 172 -171 -155 0.270188
w 173 172 156 0.638531
w 173 172 -156 0.722852
w 173 -172 156 0.200586
w 173 -172 -156 0.603884
w 174 173 157 1
w 174 173 -157 1
w 174 -173 157 0
w 174 -173 -157 1
w 175 174 158 0.671492
w 175 174 -158 0.862779
w 175 -174 158 0.68984
w 175 -174 -158 0.547831
w 176 175 159 0.903855
w 176 175 -159 0.601916
w 176 -175 159 0.0154864
w 176 -175 -159 0.0508704
w 177 176 160 0
w 177 176 -160 0
w 177 -176 160 1
w 177 -176 -160 1
w 178 177 161 1
w 178 177 -161 1
w 178 -177 161 1
w 178 -177 -161 0
w 179 178 162 0
w 179 178 -162 1
w 179 -178 162 0
w 179 -178 -162 0
w 180 179 163 0.0863935
w 180 179 -163 0.984692
w 180 -179 163 0.417013
w 180 -179 -163 0.705814
w 181 180 164 0
w 181 180 -164 1
w 181 -180 164 0
w 181 -180 -164 1
w 182 181 165 0.970449
w 182 181 -165 0.519297
w 182 -181 165 0.527054
w 182 -181 -165 0.985935
w 183 182 166 0.579664
w 183 182 -166 0.505212
w 183 -182 166 0.592632
w 183 -182 -166 0.954765
w 184 183 167 0
w 184 183 -167 0
w 184 -183 167 0
w 184 -183 -167 1
w 185 184 168 0.901266
w 185 184 -168 0.77677
w 185 -184 168 0.0376694
w 185 -184 -168 0.682509
w 186 185 169 0
w 186 185 -169 1
w 186 -185 169 0
w 186 -185 -169 1
w 187 186 170 1
w 187 186 -170 1
w 187 -186 170 0
w 187 -186 -170 1
w 188 171 0.77716
w 188 -171 0.356354
w 189 188 172 0
w 189 188 -172 0
w 189 -188 172 1
w 189 -188 -172 0
w 190 189 173 0.583155
w 190 189 -173 0.838643
w 190 -189 173 0.902173
w 190 -189 -173 0.176416
w 191 190 174 0.745048
w 191 190 -174 0.901025
w 191 -190 174 0.648167
w 191 -190 -174 0.646314
w 192 191 175 0.685836
w 192 191 -175 0.328822
w 192 -191 175 0.707311
w 192 -191 -175 0.628838
w 193 192 176 0
w 193 192 -176 1
w 193 -192 176 0
w 193 -192 -176 1
w 194 193 177 0
w 194 193 -177 1
w 194 -193 177 1
w 194 -193 -177 0
w 195 194 178 0.595886
w 195 194 -178 0.505838
w 195 -194 178 0.0747351
w 195 -194 -178 0.586409
w 196 195 179 1
w 196 195 -179 0
w 196 -195 179 1
w 196 -195 -179 1
w 197 196 180 0
w 197 196 -180 1
w 197 -196 180 0
w 197 -196 -180 0
w 198 197 181 0
w 198 197 -181 0
w 198 -197 181 0
w 198 -197 -181 1
w 199 198 182 1
w 199 198 -182 1
w 199 -198 182 0
w 199 -198 -182 1
w 200 199 183 1
w 200 199 -183 1
w 200 -199 183 0
w 200 -199 -183 0
w 201 200 184 0.452358
w 201 200 -184 0.137886
w 201 -200 184 0.346685
w 201 -200 -184 0.527093
w 202 201 185 0.736402
w 202 201 -185 0.449329
w 202 -201 185 0.893859
w 202 -201 -185 0.96476
w 203 202 186 1
w 203 202 -186 0
w 203 -202 186 0
w 203 -202 -186 0
w 204 203 187 0.0589669
w 204 203 -187 0.411643
w 204 -203 187 0.367844
w 204 -203 -187 0.60356
w 205 188 0
w 205 -188 1
w 206 205 189 1
w 206 205 -189 0
w 206 -205 189 0
w 206 -205 -189 0
w 207 206 190 0.0998606
w 207 206 -190 0.461116
w 207 -206 190 0.471458
w 207 -206 -190 0.940708
w 208 207 191 0.609344
w 208 207 -191 0.287393
w 208 -207 191 0.440567
w 208 -207 -191 0.333639
w 209 208 192 1
w 209 208 -192 0
w 209 -208 192 1
w 209 -208 -192 0
w 210 209 193 1
w 210 209 -193 1
w 210 -209 193 0
w 210 -209 -193 1
w 211 210 194 0
w 211 210 -194 0
w 211 -210 194 1
w 211 -210 -194 0
w 212 211 195 0.915237
w 212 211 -195 0.806963
w 212 -211 195 0.388977
w 212 -211 -195 0.375874
w 213 212 196 0.318434
w 213 212 -196 0.475735
w 213 -212 196 0.00928381
w 213 -212 -196 0.789892
w 214 213 197 1
w 214 213 -197 0
w 214 -213 197 0
w 214 -213 -197 1
w 215 214 198 0.72763
w 215 214 -198 0.253221
w 215 -214 198 0.960373
w 215 -214 -198 0.716185
w 216 215 199 0
w 216 215 -199 1
w 216 -215 199 0
w 216 -215 -199 0
w 217 216 200 0.489484
w 217 216 -200 0.747711
w 217 -216 200 0.151962
w 217 -216 -200 0.158842
w 218 217 201 1
w 218 217 -201 0
w 218 -217 201 1
w 218 -217 -201 1
w 219 218 202 0
w 219 218 -202 1
w 219 -218 202 0
w 219 -218 -202 1
w 220 219 203 1
w 220 219 -203 0
w 220 -219 203 1
w 220 -219 -203 1
w 221 220 204 0.607365
w 221 220 -204 0.773596
w 221 -220 204 0.0610067
w 221 -220 -204 0.567738
w 222 205 1
w 222 -205 0
w 223 222 206 0.299586
w 223 222 -206 0.901549
w 223 -222 206 0.377336
w 223 -222 -206 0.0965473
w 224 223 207 1
w 224 223 -207 0
w 224 -223 207 0
w 224 -223 -207 1
w 225 224 208 0
w 225 224 -208 1
w 225 -224 208 1
w 225 -224 -208 1
w 226 225 209 0.278748
w 226 225 -209 0.999595
w 226 -225 209 0.280711
w 226 -225 -209 0.754002
w 227 226 210 1
w 227 226 -210 0
w 227 -226 210 1
w 227 -226 -210 1
w 228 227 211 0
w 228 227 -211 1
w 228 -227 211 1
w 228 -227 -211 1
w 229 228 212 0
w 229 228 -212 1
w 229 -228 212 1
w 229 -228 -212 0
w 230 229 213 0
w 230 229 -213 1
w 230 -229 213 1
w 230 -229 -213 0
w 231 230 214 0.52217
w 231 230 -214 0.538239
w 231 -230 214 0.830349
w 231 -230 -214 0.115557
w 232 231 215 0.589357
w 232 231 -215 0.394305
w 232 -231 215 0.611742
w 232 -231 -215 0.870068
w 233 232 216 0
w 233 232 -216 1
w 233 -232 216 0
w 233 -232 -216 0
w 234 233 217 0
w 234 233 -217 0
w 234 -233 217 1
w 234 -233 -217 1
w 235 234 218 0.615297
w 235 234 -218 0.10417
w 235 -234 218 0.767367
w 235 -234 -218 0.791675
w 236 235 219 1
w 236 235 -219 1
w 236 -235 219 0
w 236 -235 -219 1
w 237 236 220 0.5843
w 237 236 -220 0.507211
w 237 -236 220 0.0848092
w 237 -236 -220 0.196446
w 238 237 221 0
w 238 237 -221 1
w 238 -237 221 0
w 238 -237 -221 0
w 239 222 0.561876
w 239 -222 0.404223
w 240 239 223 1
w 240 239 -223 0
w 240 -239 223 1
w 240 -239 -223 1
w 241 240 224 0
w 241 240 -224 1
w 241 -240 224 0
w 241 -240 -224 1
w 242 241 225 0.640107
w 242 241 -225 0.0143198
w 242 -241 225 0.105374
w 242 -241 -225 0.733207
w 243 242 226 0
w 243 242 -226 1
w 243 -242 226 1
w 243 -242 -226 1
w 244 243 227 0.515464
w 244 243 -227 0.932182
w 244 -243 227 0.0138482
w 244 -243 -227 0.994578
w 245 244 228 0.980484
w 245 244 -228 0.622
w 245 -244 228 0.502026
w 245 -244 -228 0.54236
w 246 245 229 0
w 246 245 -229 1
w 246 -245 229 0
w 246 -245 -229 1
w 247 246 230 0.676239
w 247 246 -230 0.968881
w 247 -246 230 0.850905
w 247 -246 -230 0.52467
w 248 247 231 0.824502
w 248 247 -231 0.164777
w 248 -247 231 0.846149
w 248 -247 -231 0.929876
w 249 248 232 0.307551
w 249 248 -232 0.0813115
w 249 -248 232 0.308053
w 249 -248 -232 0.738206
w 250 249 233 0.225333
w 250 249 -233 0.253669
w 250 -249 233 0.749229
w 250 -249 -233 0.239182
w 251 250 234 1
w 251 250 -234 0
w 251 -250 234 0
w 251 -250 -234 1
w 252 251 235 0.896471
w 252 251 -235 0.596465
w 252 -251 235 0.994462
w 252 -251 -235 0.339575
w 253 252 236 0.639136
w 253 252 -236 0.0158133
w 253 -252 236 0.775449
w 253 -252 -236 0.490041
w 254 253 237 0.607279
w 254 253 -237 0.314543
w 254 -253 237 0.70526
w 254 -253 -237 0.453428
w 255 254 238 0
w 255 254 -238 0
w 255 -254 238 1
w 255 -254 -238 0
w 256 239 1
w 256 -239 0
w 257 256 240 0
w 257 256 -240 1
w 257 -256 240 1
w 257 -256 -240 1
w 258 257 241 0.871348
w 258 257 -241 0.37323
w 258 -257 241 0.357504
w 258 -257 -241 0.767819
w 259 258 242 0.351966
w 259 258 -242 0.107394
w 259 -258 242 0.776263
w 259 -258 -242 0.991102
w 260 259 243 1
w 260 259 -243 0
w 260 -259 243 0
w 260 -259 -243 1
w 261 260 244 0.368951
w 261 260 -244 0.612419
w 261 -260 244 0.0401048
w 261 -260 -244 0.972195
w 262 261 245 0
w 262 261 -245 1
w 262 -261 245 0
w 262 -261 -245 1
w 263 262 246 1
w 263 262 -246 0
w 263 -262 246 1
w 263 -262 -246 0
w 264 263 247 0.991412
w 264 263 -247 0.497884
w 264 -263 247 0.155455
w 264 -263 -247 0.348916
w 265 264 248 1
w 265 264 -248 1
w 265 -264 248 0
w 265 -264 -248 1
w 266 265 249 0.496305
w 266 265 -249 0.453126
w 266 -265 249 0.173126
w 266 -265 -249 0.159996
w 267 266 250 0.968812
w 267 266 -250 0.528947
w 267 -266 250 0.224536
w 267 -266 -250 0.00891663
w 268 267 251 0.597934
w 268 267 -251 0.374752
w 268 -267 251 0.384633
w 268 -267 -251 0.470516
w 269 268 252 0.404756
w 269 268 -252 0.0959512
w 269 -268 252 0.283985
w 269 -268 -252 0.800691
w 270 269 253 0.0662093
w 270 269 -253 0.792103
w 270 -269 253 0.220372
w 270 -269 -253 0.221664
w 271 270 254 0
w 271 270 -254 0
w 271 -270 254 1
w 271 -270 -254 0
w 272 271 255 1
w 272 271 -255 0
w 272 -271 255 1
w 272 -271 -255 0
w 273 256 0.31347
w 273 -256 0.675822
w 274 273 257 0
w 274 273 -257 0
w 274 -273 257 0
w 274 -273 -257 1
w 275 274 258 0.606456
w 275 274 -258 0.942856
w 275 -274 258 0.334952
w 275 -274 -258 0.702407
w 276 275 259 1
w 276 275 -259 0
w 276 -275 259 0
w 276 -275 -259 1
w 277 276 260 0.514714
w 277 276 -260 0.068764
w 277 -276 260 0.131341
w 277 -276 -260 0.861527
w 278 277 261 0.990514
w 278 277 -261 0.109754
w 278 -277 261 0.444549
w 278 -277 -261 0.345992
w 279 278 262 0.151559
w 279 278 -262 0.861466
w 279 -278 262 0.124576
w 279 -278 -262 0.827382
w 280 279 263 0.662582
w 280 279 -263 0.512121
w 280 -279 263 0.451449
w 280 -279 -263 0.798523
w 281 280 264 0.381645
w 281 280 -264 0.404979
w 281 -280 264 0.514468
w 281 -280 -264 0.716597
w 282 281 265 1
w 282 281 -265 1
w 282 -281 265 1
w 282 -281 -265 0
w 283 282 266 0
w 283 282 -266 0
w 283 -282 266 1
w 283 -282 -266 0
w 284 283 267 0.299403
w 284 283 -267 0.520354
w 284 -283 267 0.203961
w 284 -283 -267 0.645395
w 285 284 268 0
w 285 284 -268 1
w 285 -284 268 0
w 285 -284 -268 0
w 286 285 269 0
w 286 285 -269 1
w 286 -285 269 0
w 286 -285 -269 1
w 287 286 270 1
w 287 286 -270 1
w 287 -286 270 1
w 287 -286 -270 0
w 288 287 271 0.814678
w 288 287 -271 0.961788
w 288 -287 271 0.556771
w 288 -287 -271 0.594662
w 289 288 272 0
w 289 288 -272 0
w 289 -288 272 1
w 289 -288 -272 0